Maximize
2.0 x0 +4.0 x1 
Subject To
2.0 x0 +4.0 x1  <= 11
2.0 x0 +4.0 x1  >= -1
-1.0 x0 -2.0 x1  <= 11
-1.0 x0 -2.0 x1  >= -1
-1.0 x0 -2.0 x1  <= 11
-1.0 x0 -2.0 x1  >= -1
-1.0 x0 +1.0 x1  <= 11
-1.0 x0 +1.0 x1  >= -1
2.0 x0 +1.0 x1  <= 11
2.0 x0 +1.0 x1  >= -1
End
